% File represents an instance of a Composite Structure problem to be solved by a CP framework
% Created on 2025-03-26 10:41:23.151
T = 50;
n = 16;
m = 24;
edges = [(1, 2),
(6, 5),
(10, 9),
(14, 13),
(3, 2),
(6, 7),
(11, 10),
(15, 14),
(4, 3),
(8, 7),
(11, 12),
(16, 15),
(1, 5),
(5, 9),
(9, 13),
(6, 2),
(6, 10),
(10, 14),
(3, 7),
(11, 7),
(11, 15),
(4, 8),
(8, 12),
(16, 12)];
counts = [|6, 14, 6, 18,
|6, 12, 6, 18,
|6, 12, 6, 20,
|8, 14, 8, 20,
|6, 14, 6, 14,
|6, 14, 6, 18,
|6, 12, 6, 18,
|6, 12, 6, 20,
|4, 14, 4, 14,
|4, 14, 4, 16,
|6, 14, 6, 18,
|4, 12, 4, 18,
|4, 12, 4, 12,
|4, 12, 4, 16,
|4, 14, 4, 16,
|4, 14, 4, 20|];
